src/LKH/IO/anjos-60-04.tour
NAME : anjos-60-04.-99.tour
COMMENT : Length = -99
COMMENT : Found by LKH [Keld Helsgaun] Sun Apr 13 17:05:00 2025
TYPE : TOUR
DIMENSION : 60
TOUR_SECTION
1
4
40
6
35
11
3
60
52
25
43
32
51
49
5
23
57
10
29
42
37
54
7
50
39
44
20
13
12
36
33
31
24
9
41
28
26
30
14
48
45
8
38
21
15
58
27
55
59
56
53
2
18
46
17
47
16
19
22
34
-1
EOF
